c 
c MolecularSimulation 1.0.2
c Simulation written: Tue Aug 14 15:19:26 2012
c Test: Ogihara-Ray
c Input: ./data/testCNF/SWEEP_R14_K3_N20_M268_S001.cnf
c 
s UNSATISFIABLE
v 0
c algorithmType:  Ogihara-Ray
c algorithmTime:  0.012813
c solutionMemory: 0
c mixCount:       608
c extractCount:   804
c appendCount:    36
c splitCount:     18
c spliceCount:    0
c purifyCount:    286
c numVar:         20
c numClause:      268
c 
